c Standarized MaxSat Instance
c{
c "sha1sum": "511271746e16c21c44d64729d334245390730267",
c "nvars": 40,
c "ncls": 1116,
c "nhards": 0,
c "nhard_len_stats":
c    { "min": 0, "max": 0, "ave": 0.00,
c      "stddev": 0.00 },
c "nsofts": 1116,
c "nsoft_len_stats":
c    { "min": 2, "max": 2, "ave": 2.00,
c      "stddev": 0.00 },
c "nsoft_wts": 10,
c "soft_wt_stats":
c    { "min": 1, "max": 10, "ave": 5.66,
c      "stddev": 2.81 }
c}
c------------------------------------------------------------
c File:  san200_0.7_1.clq
c
c SOURCE: Laura Sanchis (laura@cs.colgate.edu)
c
c REFERENCE: "Test Case Construction for the Vertex Cover Problem", 
c DIMACS Workshop on Computational Support for Discrete Mathematics, 
c March, 1992, with additional work in a to be published technical
c report.
c
c 200 vertices 13930 edges 30 max clique
c 200 5970 170 1968 181056 15
p wcnf 40 1116 6317
9 1 3 0
9 -1 -3 0
4 1 4 0
4 -1 -4 0
8 1 5 0
8 -1 -5 0
8 1 6 0
8 -1 -6 0
10 1 7 0
10 -1 -7 0
2 1 10 0
2 -1 -10 0
4 1 12 0
4 -1 -12 0
8 1 13 0
8 -1 -13 0
3 1 14 0
3 -1 -14 0
6 1 17 0
6 -1 -17 0
5 1 18 0
5 -1 -18 0
7 1 21 0
7 -1 -21 0
4 1 22 0
4 -1 -22 0
6 1 23 0
6 -1 -23 0
10 1 24 0
10 -1 -24 0
10 1 25 0
10 -1 -25 0
7 1 26 0
7 -1 -26 0
8 1 27 0
8 -1 -27 0
2 1 30 0
2 -1 -30 0
7 1 31 0
7 -1 -31 0
1 1 32 0
1 -1 -32 0
3 1 33 0
3 -1 -33 0
2 1 35 0
2 -1 -35 0
9 1 36 0
9 -1 -36 0
2 1 38 0
2 -1 -38 0
5 1 39 0
5 -1 -39 0
2 2 3 0
2 -2 -3 0
2 2 5 0
2 -2 -5 0
10 2 6 0
10 -2 -6 0
3 2 7 0
3 -2 -7 0
6 2 8 0
6 -2 -8 0
9 2 10 0
9 -2 -10 0
7 2 11 0
7 -2 -11 0
3 2 12 0
3 -2 -12 0
7 2 13 0
7 -2 -13 0
6 2 15 0
6 -2 -15 0
5 2 16 0
5 -2 -16 0
10 2 19 0
10 -2 -19 0
3 2 20 0
3 -2 -20 0
8 2 21 0
8 -2 -21 0
6 2 23 0
6 -2 -23 0
8 2 24 0
8 -2 -24 0
5 2 25 0
5 -2 -25 0
9 2 26 0
9 -2 -26 0
3 2 27 0
3 -2 -27 0
4 2 28 0
4 -2 -28 0
9 2 29 0
9 -2 -29 0
10 2 31 0
10 -2 -31 0
1 2 32 0
1 -2 -32 0
10 2 34 0
10 -2 -34 0
6 2 38 0
6 -2 -38 0
1 2 40 0
1 -2 -40 0
2 3 4 0
2 -3 -4 0
7 3 5 0
7 -3 -5 0
9 3 6 0
9 -3 -6 0
4 3 7 0
4 -3 -7 0
1 3 8 0
1 -3 -8 0
1 3 9 0
1 -3 -9 0
5 3 10 0
5 -3 -10 0
1 3 11 0
1 -3 -11 0
3 3 12 0
3 -3 -12 0
10 3 13 0
10 -3 -13 0
10 3 14 0
10 -3 -14 0
9 3 15 0
9 -3 -15 0
3 3 16 0
3 -3 -16 0
6 3 17 0
6 -3 -17 0
4 3 19 0
4 -3 -19 0
8 3 20 0
8 -3 -20 0
6 3 21 0
6 -3 -21 0
7 3 22 0
7 -3 -22 0
6 3 23 0
6 -3 -23 0
1 3 24 0
1 -3 -24 0
5 3 28 0
5 -3 -28 0
10 3 29 0
10 -3 -29 0
10 3 30 0
10 -3 -30 0
8 3 31 0
8 -3 -31 0
3 3 32 0
3 -3 -32 0
8 3 34 0
8 -3 -34 0
7 3 37 0
7 -3 -37 0
4 3 38 0
4 -3 -38 0
7 3 40 0
7 -3 -40 0
2 4 5 0
2 -4 -5 0
5 4 7 0
5 -4 -7 0
9 4 8 0
9 -4 -8 0
9 4 9 0
9 -4 -9 0
4 4 10 0
4 -4 -10 0
3 4 11 0
3 -4 -11 0
9 4 12 0
9 -4 -12 0
4 4 13 0
4 -4 -13 0
7 4 15 0
7 -4 -15 0
10 4 16 0
10 -4 -16 0
6 4 17 0
6 -4 -17 0
7 4 19 0
7 -4 -19 0
9 4 20 0
9 -4 -20 0
5 4 21 0
5 -4 -21 0
10 4 23 0
10 -4 -23 0
4 4 24 0
4 -4 -24 0
9 4 26 0
9 -4 -26 0
7 4 27 0
7 -4 -27 0
10 4 28 0
10 -4 -28 0
5 4 29 0
5 -4 -29 0
3 4 32 0
3 -4 -32 0
10 4 33 0
10 -4 -33 0
10 4 34 0
10 -4 -34 0
2 4 35 0
2 -4 -35 0
9 4 36 0
9 -4 -36 0
7 4 38 0
7 -4 -38 0
5 4 39 0
5 -4 -39 0
7 4 40 0
7 -4 -40 0
3 5 6 0
3 -5 -6 0
8 5 7 0
8 -5 -7 0
4 5 8 0
4 -5 -8 0
5 5 10 0
5 -5 -10 0
3 5 11 0
3 -5 -11 0
2 5 12 0
2 -5 -12 0
3 5 13 0
3 -5 -13 0
6 5 14 0
6 -5 -14 0
5 5 15 0
5 -5 -15 0
2 5 16 0
2 -5 -16 0
10 5 19 0
10 -5 -19 0
2 5 20 0
2 -5 -20 0
2 5 21 0
2 -5 -21 0
5 5 22 0
5 -5 -22 0
8 5 23 0
8 -5 -23 0
10 5 24 0
10 -5 -24 0
10 5 25 0
10 -5 -25 0
7 5 28 0
7 -5 -28 0
4 5 29 0
4 -5 -29 0
8 5 34 0
8 -5 -34 0
4 5 36 0
4 -5 -36 0
3 5 37 0
3 -5 -37 0
3 5 38 0
3 -5 -38 0
6 5 40 0
6 -5 -40 0
3 6 7 0
3 -6 -7 0
2 6 9 0
2 -6 -9 0
8 6 10 0
8 -6 -10 0
2 6 12 0
2 -6 -12 0
8 6 13 0
8 -6 -13 0
2 6 14 0
2 -6 -14 0
8 6 16 0
8 -6 -16 0
1 6 18 0
1 -6 -18 0
10 6 20 0
10 -6 -20 0
1 6 21 0
1 -6 -21 0
6 6 22 0
6 -6 -22 0
2 6 23 0
2 -6 -23 0
3 6 24 0
3 -6 -24 0
8 6 26 0
8 -6 -26 0
8 6 27 0
8 -6 -27 0
7 6 29 0
7 -6 -29 0
10 6 30 0
10 -6 -30 0
7 6 31 0
7 -6 -31 0
8 6 32 0
8 -6 -32 0
1 6 33 0
1 -6 -33 0
2 6 35 0
2 -6 -35 0
6 6 36 0
6 -6 -36 0
1 6 37 0
1 -6 -37 0
1 6 39 0
1 -6 -39 0
3 7 8 0
3 -7 -8 0
5 7 9 0
5 -7 -9 0
9 7 10 0
9 -7 -10 0
6 7 11 0
6 -7 -11 0
8 7 12 0
8 -7 -12 0
1 7 13 0
1 -7 -13 0
2 7 14 0
2 -7 -14 0
10 7 16 0
10 -7 -16 0
3 7 17 0
3 -7 -17 0
9 7 19 0
9 -7 -19 0
2 7 20 0
2 -7 -20 0
10 7 21 0
10 -7 -21 0
1 7 23 0
1 -7 -23 0
9 7 24 0
9 -7 -24 0
1 7 25 0
1 -7 -25 0
1 7 26 0
1 -7 -26 0
10 7 27 0
10 -7 -27 0
6 7 28 0
6 -7 -28 0
2 7 29 0
2 -7 -29 0
2 7 33 0
2 -7 -33 0
4 7 34 0
4 -7 -34 0
10 7 35 0
10 -7 -35 0
9 7 36 0
9 -7 -36 0
4 7 37 0
4 -7 -37 0
6 7 38 0
6 -7 -38 0
6 7 40 0
6 -7 -40 0
5 8 10 0
5 -8 -10 0
7 8 11 0
7 -8 -11 0
1 8 12 0
1 -8 -12 0
6 8 13 0
6 -8 -13 0
8 8 15 0
8 -8 -15 0
4 8 16 0
4 -8 -16 0
10 8 19 0
10 -8 -19 0
6 8 20 0
6 -8 -20 0
9 8 21 0
9 -8 -21 0
8 8 23 0
8 -8 -23 0
7 8 24 0
7 -8 -24 0
1 8 25 0
1 -8 -25 0
8 8 26 0
8 -8 -26 0
9 8 28 0
9 -8 -28 0
10 8 29 0
10 -8 -29 0
9 8 30 0
9 -8 -30 0
9 8 31 0
9 -8 -31 0
10 8 35 0
10 -8 -35 0
8 8 36 0
8 -8 -36 0
10 8 37 0
10 -8 -37 0
10 8 38 0
10 -8 -38 0
7 8 39 0
7 -8 -39 0
5 8 40 0
5 -8 -40 0
2 9 10 0
2 -9 -10 0
9 9 14 0
9 -9 -14 0
9 9 15 0
9 -9 -15 0
1 9 16 0
1 -9 -16 0
7 9 17 0
7 -9 -17 0
3 9 18 0
3 -9 -18 0
7 9 19 0
7 -9 -19 0
3 9 20 0
3 -9 -20 0
8 9 21 0
8 -9 -21 0
4 9 22 0
4 -9 -22 0
4 9 24 0
4 -9 -24 0
3 9 25 0
3 -9 -25 0
1 9 26 0
1 -9 -26 0
7 9 27 0
7 -9 -27 0
3 9 30 0
3 -9 -30 0
7 9 31 0
7 -9 -31 0
6 9 32 0
6 -9 -32 0
10 9 33 0
10 -9 -33 0
3 9 35 0
3 -9 -35 0
6 9 36 0
6 -9 -36 0
8 9 39 0
8 -9 -39 0
2 9 40 0
2 -9 -40 0
5 10 11 0
5 -10 -11 0
6 10 12 0
6 -10 -12 0
10 10 13 0
10 -10 -13 0
5 10 15 0
5 -10 -15 0
4 10 16 0
4 -10 -16 0
9 10 19 0
9 -10 -19 0
5 10 20 0
5 -10 -20 0
1 10 22 0
1 -10 -22 0
4 10 23 0
4 -10 -23 0
6 10 24 0
6 -10 -24 0
9 10 26 0
9 -10 -26 0
3 10 27 0
3 -10 -27 0
7 10 28 0
7 -10 -28 0
5 10 29 0
5 -10 -29 0
5 10 30 0
5 -10 -30 0
4 10 31 0
4 -10 -31 0
8 10 34 0
8 -10 -34 0
2 10 35 0
2 -10 -35 0
7 10 36 0
7 -10 -36 0
1 10 37 0
1 -10 -37 0
5 10 38 0
5 -10 -38 0
7 10 40 0
7 -10 -40 0
7 11 12 0
7 -11 -12 0
7 11 13 0
7 -11 -13 0
4 11 14 0
4 -11 -14 0
2 11 15 0
2 -11 -15 0
7 11 16 0
7 -11 -16 0
7 11 17 0
7 -11 -17 0
8 11 20 0
8 -11 -20 0
4 11 21 0
4 -11 -21 0
8 11 26 0
8 -11 -26 0
3 11 28 0
3 -11 -28 0
10 11 29 0
10 -11 -29 0
7 11 31 0
7 -11 -31 0
7 11 32 0
7 -11 -32 0
3 11 34 0
3 -11 -34 0
6 11 35 0
6 -11 -35 0
1 11 36 0
1 -11 -36 0
3 11 37 0
3 -11 -37 0
9 11 38 0
9 -11 -38 0
7 11 39 0
7 -11 -39 0
1 11 40 0
1 -11 -40 0
2 12 13 0
2 -12 -13 0
4 12 14 0
4 -12 -14 0
6 12 15 0
6 -12 -15 0
6 12 16 0
6 -12 -16 0
7 12 17 0
7 -12 -17 0
3 12 18 0
3 -12 -18 0
8 12 19 0
8 -12 -19 0
3 12 20 0
3 -12 -20 0
4 12 21 0
4 -12 -21 0
2 12 23 0
2 -12 -23 0
10 12 24 0
10 -12 -24 0
1 12 25 0
1 -12 -25 0
9 12 27 0
9 -12 -27 0
4 12 29 0
4 -12 -29 0
2 12 31 0
2 -12 -31 0
5 12 33 0
5 -12 -33 0
10 12 34 0
10 -12 -34 0
10 12 38 0
10 -12 -38 0
8 12 39 0
8 -12 -39 0
7 12 40 0
7 -12 -40 0
2 13 14 0
2 -13 -14 0
7 13 15 0
7 -13 -15 0
4 13 16 0
4 -13 -16 0
8 13 19 0
8 -13 -19 0
10 13 20 0
10 -13 -20 0
10 13 21 0
10 -13 -21 0
9 13 23 0
9 -13 -23 0
3 13 24 0
3 -13 -24 0
8 13 26 0
8 -13 -26 0
6 13 28 0
6 -13 -28 0
3 13 29 0
3 -13 -29 0
10 13 32 0
10 -13 -32 0
10 13 34 0
10 -13 -34 0
9 13 38 0
9 -13 -38 0
5 13 39 0
5 -13 -39 0
6 13 40 0
6 -13 -40 0
2 14 15 0
2 -14 -15 0
3 14 16 0
3 -14 -16 0
9 14 17 0
9 -14 -17 0
5 14 18 0
5 -14 -18 0
5 14 19 0
5 -14 -19 0
9 14 20 0
9 -14 -20 0
5 14 22 0
5 -14 -22 0
3 14 23 0
3 -14 -23 0
2 14 25 0
2 -14 -25 0
7 14 26 0
7 -14 -26 0
8 14 27 0
8 -14 -27 0
2 14 30 0
2 -14 -30 0
7 14 31 0
7 -14 -31 0
5 14 32 0
5 -14 -32 0
9 14 33 0
9 -14 -33 0
8 14 34 0
8 -14 -34 0
2 14 35 0
2 -14 -35 0
3 14 36 0
3 -14 -36 0
5 14 37 0
5 -14 -37 0
2 14 39 0
2 -14 -39 0
2 15 16 0
2 -15 -16 0
4 15 18 0
4 -15 -18 0
4 15 19 0
4 -15 -19 0
10 15 20 0
10 -15 -20 0
10 15 21 0
10 -15 -21 0
7 15 23 0
7 -15 -23 0
9 15 24 0
9 -15 -24 0
9 15 25 0
9 -15 -25 0
5 15 27 0
5 -15 -27 0
4 15 28 0
4 -15 -28 0
4 15 29 0
4 -15 -29 0
7 15 33 0
7 -15 -33 0
7 15 34 0
7 -15 -34 0
3 15 37 0
3 -15 -37 0
2 15 38 0
2 -15 -38 0
1 15 40 0
1 -15 -40 0
2 16 19 0
2 -16 -19 0
7 16 20 0
7 -16 -20 0
4 16 21 0
4 -16 -21 0
3 16 23 0
3 -16 -23 0
4 16 24 0
4 -16 -24 0
1 16 25 0
1 -16 -25 0
5 16 27 0
5 -16 -27 0
10 16 28 0
10 -16 -28 0
6 16 29 0
6 -16 -29 0
3 16 31 0
3 -16 -31 0
7 16 32 0
7 -16 -32 0
8 16 34 0
8 -16 -34 0
5 16 35 0
5 -16 -35 0
2 16 38 0
2 -16 -38 0
9 17 18 0
9 -17 -18 0
7 17 20 0
7 -17 -20 0
6 17 21 0
6 -17 -21 0
3 17 22 0
3 -17 -22 0
6 17 23 0
6 -17 -23 0
5 17 26 0
5 -17 -26 0
9 17 27 0
9 -17 -27 0
4 17 28 0
4 -17 -28 0
3 17 29 0
3 -17 -29 0
4 17 30 0
4 -17 -30 0
8 17 31 0
8 -17 -31 0
7 17 32 0
7 -17 -32 0
10 17 33 0
10 -17 -33 0
4 17 34 0
4 -17 -34 0
9 17 35 0
9 -17 -35 0
2 17 36 0
2 -17 -36 0
5 17 37 0
5 -17 -37 0
1 17 39 0
1 -17 -39 0
8 17 40 0
8 -17 -40 0
8 18 19 0
8 -18 -19 0
3 18 22 0
3 -18 -22 0
2 18 23 0
2 -18 -23 0
9 18 24 0
9 -18 -24 0
8 18 25 0
8 -18 -25 0
1 18 26 0
1 -18 -26 0
5 18 27 0
5 -18 -27 0
10 18 28 0
10 -18 -28 0
8 18 29 0
8 -18 -29 0
3 18 30 0
3 -18 -30 0
5 18 31 0
5 -18 -31 0
9 18 32 0
9 -18 -32 0
1 18 33 0
1 -18 -33 0
1 18 35 0
1 -18 -35 0
4 18 36 0
4 -18 -36 0
4 18 37 0
4 -18 -37 0
7 18 39 0
7 -18 -39 0
9 18 40 0
9 -18 -40 0
2 19 20 0
2 -19 -20 0
1 19 21 0
1 -19 -21 0
1 19 22 0
1 -19 -22 0
5 19 25 0
5 -19 -25 0
8 19 26 0
8 -19 -26 0
7 19 28 0
7 -19 -28 0
5 19 29 0
5 -19 -29 0
2 19 30 0
2 -19 -30 0
6 19 33 0
6 -19 -33 0
6 19 34 0
6 -19 -34 0
6 19 35 0
6 -19 -35 0
6 19 36 0
6 -19 -36 0
4 19 37 0
4 -19 -37 0
4 19 38 0
4 -19 -38 0
9 19 40 0
9 -19 -40 0
5 20 21 0
5 -20 -21 0
2 20 23 0
2 -20 -23 0
7 20 24 0
7 -20 -24 0
6 20 25 0
6 -20 -25 0
7 20 26 0
7 -20 -26 0
6 20 27 0
6 -20 -27 0
3 20 28 0
3 -20 -28 0
9 20 29 0
9 -20 -29 0
1 20 32 0
1 -20 -32 0
1 20 33 0
1 -20 -33 0
10 20 34 0
10 -20 -34 0
2 20 36 0
2 -20 -36 0
5 20 37 0
5 -20 -37 0
3 20 38 0
3 -20 -38 0
9 20 39 0
9 -20 -39 0
3 20 40 0
3 -20 -40 0
4 21 23 0
4 -21 -23 0
9 21 24 0
9 -21 -24 0
4 21 27 0
4 -21 -27 0
9 21 28 0
9 -21 -28 0
7 21 29 0
7 -21 -29 0
1 21 33 0
1 -21 -33 0
3 21 34 0
3 -21 -34 0
8 21 35 0
8 -21 -35 0
7 21 36 0
7 -21 -36 0
9 21 38 0
9 -21 -38 0
4 21 39 0
4 -21 -39 0
3 21 40 0
3 -21 -40 0
2 22 24 0
2 -22 -24 0
7 22 25 0
7 -22 -25 0
2 22 26 0
2 -22 -26 0
7 22 27 0
7 -22 -27 0
8 22 30 0
8 -22 -30 0
8 22 31 0
8 -22 -31 0
3 22 32 0
3 -22 -32 0
5 22 33 0
5 -22 -33 0
4 22 35 0
4 -22 -35 0
5 22 36 0
5 -22 -36 0
3 22 37 0
3 -22 -37 0
4 22 39 0
4 -22 -39 0
6 23 27 0
6 -23 -27 0
2 23 28 0
2 -23 -28 0
6 23 29 0
6 -23 -29 0
1 23 32 0
1 -23 -32 0
4 23 33 0
4 -23 -33 0
4 23 34 0
4 -23 -34 0
4 23 35 0
4 -23 -35 0
8 23 36 0
8 -23 -36 0
3 23 38 0
3 -23 -38 0
7 23 40 0
7 -23 -40 0
6 24 25 0
6 -24 -25 0
10 24 26 0
10 -24 -26 0
7 24 28 0
7 -24 -28 0
9 24 29 0
9 -24 -29 0
7 24 31 0
7 -24 -31 0
4 24 34 0
4 -24 -34 0
7 24 35 0
7 -24 -35 0
1 24 37 0
1 -24 -37 0
6 24 38 0
6 -24 -38 0
9 24 40 0
9 -24 -40 0
7 25 26 0
7 -25 -26 0
7 25 27 0
7 -25 -27 0
6 25 28 0
6 -25 -28 0
5 25 30 0
5 -25 -30 0
4 25 31 0
4 -25 -31 0
8 25 32 0
8 -25 -32 0
9 25 33 0
9 -25 -33 0
7 25 35 0
7 -25 -35 0
2 25 36 0
2 -25 -36 0
1 25 37 0
1 -25 -37 0
1 25 39 0
1 -25 -39 0
7 25 40 0
7 -25 -40 0
2 26 27 0
2 -26 -27 0
7 26 30 0
7 -26 -30 0
8 26 32 0
8 -26 -32 0
6 26 33 0
6 -26 -33 0
1 26 34 0
1 -26 -34 0
1 26 35 0
1 -26 -35 0
4 26 36 0
4 -26 -36 0
3 26 37 0
3 -26 -37 0
7 26 39 0
7 -26 -39 0
9 27 28 0
9 -27 -28 0
2 27 29 0
2 -27 -29 0
4 27 30 0
4 -27 -30 0
7 27 31 0
7 -27 -31 0
9 27 32 0
9 -27 -32 0
7 27 33 0
7 -27 -33 0
4 27 34 0
4 -27 -34 0
9 27 35 0
9 -27 -35 0
2 27 36 0
2 -27 -36 0
2 27 37 0
2 -27 -37 0
6 27 39 0
6 -27 -39 0
9 27 40 0
9 -27 -40 0
7 28 29 0
7 -28 -29 0
10 28 30 0
10 -28 -30 0
2 28 31 0
2 -28 -31 0
4 28 32 0
4 -28 -32 0
8 28 33 0
8 -28 -33 0
9 28 34 0
9 -28 -34 0
6 28 35 0
6 -28 -35 0
8 28 36 0
8 -28 -36 0
10 28 37 0
10 -28 -37 0
3 28 38 0
3 -28 -38 0
10 28 39 0
10 -28 -39 0
6 28 40 0
6 -28 -40 0
10 29 30 0
10 -29 -30 0
5 29 33 0
5 -29 -33 0
6 29 34 0
6 -29 -34 0
10 29 35 0
10 -29 -35 0
8 29 36 0
8 -29 -36 0
9 29 38 0
9 -29 -38 0
6 29 40 0
6 -29 -40 0
7 30 31 0
7 -30 -31 0
10 30 32 0
10 -30 -32 0
10 30 33 0
10 -30 -33 0
4 30 36 0
4 -30 -36 0
9 30 37 0
9 -30 -37 0
6 30 39 0
6 -30 -39 0
7 31 32 0
7 -31 -32 0
8 31 33 0
8 -31 -33 0
8 31 35 0
8 -31 -35 0
8 31 36 0
8 -31 -36 0
3 31 37 0
3 -31 -37 0
7 31 39 0
7 -31 -39 0
5 32 33 0
5 -32 -33 0
2 32 35 0
2 -32 -35 0
8 32 36 0
8 -32 -36 0
9 32 37 0
9 -32 -37 0
9 32 38 0
9 -32 -38 0
7 32 39 0
7 -32 -39 0
5 32 40 0
5 -32 -40 0
7 33 34 0
7 -33 -34 0
6 33 35 0
6 -33 -35 0
7 33 36 0
7 -33 -36 0
6 33 37 0
6 -33 -37 0
2 33 38 0
2 -33 -38 0
6 33 39 0
6 -33 -39 0
1 33 40 0
1 -33 -40 0
8 34 38 0
8 -34 -38 0
6 34 40 0
6 -34 -40 0
9 35 36 0
9 -35 -36 0
6 35 37 0
6 -35 -37 0
2 35 39 0
2 -35 -39 0
5 35 40 0
5 -35 -40 0
6 36 37 0
6 -36 -37 0
1 36 39 0
1 -36 -39 0
9 36 40 0
9 -36 -40 0
4 37 39 0
4 -37 -39 0
7 38 40 0
7 -38 -40 0
5 39 40 0
5 -39 -40 0
